Version identifier: 22.1.0.0 | 2022-03-09 | 1a383f8ce
CPXPARAM_Read_DataCheck                          1
CPXPARAM_Threads                                 1
CPXPARAM_TimeLimit                               3600
Tried aggregator 2 times.
MIP Presolve eliminated 887 rows and 120 columns.
MIP Presolve modified 3347 coefficients.
Aggregator did 14 substitutions.
Reduced MIP has 530 rows, 106 columns, and 2497 nonzeros.
Reduced MIP has 60 binaries, 0 generals, 0 SOSs, and 0 indicators.
Presolve time = 0.01 sec. (5.61 ticks)
Found incumbent of value 95.031960 after 0.02 sec. (7.67 ticks)
Probing fixed 4 vars, tightened 10 bounds.
Probing time = 0.00 sec. (1.06 ticks)
Tried aggregator 1 time.
Detecting symmetries...
MIP Presolve eliminated 16 rows and 4 columns.
MIP Presolve modified 90 coefficients.
Reduced MIP has 514 rows, 102 columns, and 2403 nonzeros.
Reduced MIP has 56 binaries, 0 generals, 0 SOSs, and 0 indicators.
Presolve time = 0.00 sec. (1.64 ticks)
Probing time = 0.00 sec. (1.05 ticks)
Clique table members: 360.
MIP emphasis: balance optimality and feasibility.
MIP search method: dynamic search.
Parallel mode: none, using 1 thread.
Root relaxation solution time = 0.00 sec. (1.62 ticks)

        Nodes                                         Cuts/
   Node  Left     Objective  IInf  Best Integer    Best Bound    ItCnt     Gap

*     0+    0                           95.0320       77.6903            18.25%
      0     0       77.6903    30       95.0320       77.6903       84   18.25%
      0     0       77.6903    10       95.0320       Cuts: 6       97   18.25%
*     0+    0                           77.7148       77.6903             0.03%
      0     0        cutoff             77.7148                     97    0.00%
Elapsed time = 0.06 sec. (29.57 ticks, tree = 0.01 MB, solutions = 2)

GUB cover cuts applied:  1
Mixed integer rounding cuts applied:  3

Root node processing (before b&c):
  Real time             =    0.06 sec. (29.59 ticks)
Sequential b&c:
  Real time             =    0.00 sec. (0.00 ticks)
                          ------------
Total (root+branch&cut) =    0.06 sec. (29.59 ticks)
